problems/VanDerWaerdenNumbers/VanDerWaerden-models/noch/O2/lingeling/model_4-k3l4n61-solution000001.solution
language Essence 1.3

letting p be
        partition({1, 2, 3, 7, 8, 14, 15, 17, 19, 23, 24, 25, 28, 30, 32, 38, 40, 44, 46, 51, 52, 55, 57, 59, 60},
                  {4, 9, 13, 16, 26, 29, 31, 35, 39, 41, 45, 48, 53, 58},
                  {5, 6, 10, 11, 12, 18, 20, 21, 22, 27, 33, 34, 36, 37, 42, 43, 47, 49, 50, 54, 56, 61})
